Mg32 Se31                               
   1.00000000000000     
    11.9836209999999994    0.0000000000000000    0.0000000000000000
     0.0000000000000000   11.9836209999999994    0.0000000000000000
     0.0000000000000000    0.0000000000000000   11.9836209999999994
   Mg   Se
    32    31
Direct
  0.0113108196299976  0.0110853199648275  0.0113327449972189
  0.9999310846761205  0.9999837359648325  0.4996331487788623
  0.0002926797512259  0.4994176679008433  0.0003964184403884
  0.0004872429580942  0.4990062627057625  0.4988547183203096
  0.4992492587860937  0.0001019419665553  0.0002561789818643
  0.4980185235047259  0.0007211397675562  0.4982468515899541
  0.4984863130743520  0.4989333116475976  0.0006498083761528
  0.4999763774736437  0.5003495968052647  0.5000579429373815
  0.2394865768379546  0.2391560932807266  0.0108738345850767
  0.2503151812102686  0.2500348092982279  0.4996406186557607
  0.2498052608038535  0.7512680382048771  0.0005877349357561
  0.2494074057262523  0.7521017701808006  0.4982154952944953
  0.7505156716448269  0.2499096053029106  0.0000192905172867
  0.7513776486013910  0.2494833703955450  0.4989934911324099
  0.7515940627598354  0.7517704492732520  0.0006087296893469
  0.7499340738622990  0.7499149400571170  0.5000218048712171
  0.2374203891090971  0.0126990021134645  0.2379358567843042
  0.2498966199476769  0.0001282148585489  0.7507211343704654
  0.2498254485542688  0.4994698352976670  0.2498655349260872
  0.2493635352237007  0.4991494025163448  0.7520260194010788
  0.7504329672403784  0.9999825012216519  0.2500335567084306
  0.7516336222380318  0.0003955342985762  0.7521784392536617
  0.7514297097910969  0.4993250942202252  0.2492914917918014
  0.7499919018602341  0.5001170639820813  0.7499962623780476
  0.0101888816229305  0.2396967419189053  0.2400999927965444
  0.0000677961944433  0.2499886696569789  0.7507919064454356
  0.0004348243691794  0.7512239814603063  0.2499568992979491
  0.0007310640460148  0.7516558459513050  0.7519483839393786
  0.4993287071026913  0.2500183225442498  0.2503423976088754
  0.4983575986315145  0.2495625501414196  0.7518467476096333
  0.4977748998500502  0.7520805727010611  0.2494900568225091
  0.4999976700113109  0.7500259414375421  0.7501121754502549
  0.1250129363552972  0.1250785151111415  0.6251682452476359
  0.1250210739504638  0.6253585525180156  0.1251309434091752
  0.1251349054074495  0.6255785642067409  0.6250993117760331
  0.6248669433828127  0.1250879344843483  0.1251359831821830
  0.6248085210973713  0.1247466780811806  0.6253943148963046
  0.6246865583966752  0.6257357657672884  0.1250524770013826
  0.6250068197532244  0.6251323930638506  0.6251775013919527
  0.3711470597765896  0.3711408550260842  0.1244932861114165
  0.3746900738806360  0.3752230541124675  0.6254960594344183
  0.3704580323608866  0.8797977905253305  0.1259515228505066
  0.3746614905294763  0.8753802915299573  0.6250848550540411
  0.8788582119858859  0.3711477218682546  0.1257368736629374
  0.8754161650310621  0.3748953396066170  0.6252026509369273
  0.8791578075066866  0.8792425995172195  0.1244067216753635
  0.8751965735237164  0.8750904102162167  0.6254270925375280
  0.3706326053158762  0.1245351753265425  0.3707653131888691
  0.3709514172220381  0.1255681957802111  0.8791189352956579
  0.3744655580092768  0.6252460515180900  0.3747180567117852
  0.3745142213223929  0.6255756713793375  0.8758006073347531
  0.8785962757121766  0.1254049304910296  0.3714258043894461
  0.8793436248361672  0.1243880438743545  0.8794090763802060
  0.8756448056663686  0.6254621980024453  0.3746070223761393
  0.8753410234528189  0.6250291141793198  0.8755218739512856
  0.1243782207900708  0.3712844857199968  0.3714231131892234
  0.1257071294997942  0.3710033027182860  0.8792609554716364
  0.1258075062636479  0.8798060441112696  0.3706936378802794
  0.1244220155232156  0.8792728245501493  0.8792870254094041
  0.6252558895402629  0.3750865515514192  0.3747988595832226
  0.6249031159564424  0.3750309798275353  0.8754357414586593
  0.6246893138703697  0.8752516790690308  0.3748498916710403
  0.6249092869872470  0.8752719592292735  0.8755565788526809
 
  0.00000000E+00  0.00000000E+00  0.00000000E+00
  0.00000000E+00  0.00000000E+00  0.00000000E+00
  0.00000000E+00  0.00000000E+00  0.00000000E+00
  0.00000000E+00  0.00000000E+00  0.00000000E+00
  0.00000000E+00  0.00000000E+00  0.00000000E+00
  0.00000000E+00  0.00000000E+00  0.00000000E+00
  0.00000000E+00  0.00000000E+00  0.00000000E+00
  0.00000000E+00  0.00000000E+00  0.00000000E+00
  0.00000000E+00  0.00000000E+00  0.00000000E+00
  0.00000000E+00  0.00000000E+00  0.00000000E+00
  0.00000000E+00  0.00000000E+00  0.00000000E+00
  0.00000000E+00  0.00000000E+00  0.00000000E+00
  0.00000000E+00  0.00000000E+00  0.00000000E+00
  0.00000000E+00  0.00000000E+00  0.00000000E+00
  0.00000000E+00  0.00000000E+00  0.00000000E+00
  0.00000000E+00  0.00000000E+00  0.00000000E+00
  0.00000000E+00  0.00000000E+00  0.00000000E+00
  0.00000000E+00  0.00000000E+00  0.00000000E+00
  0.00000000E+00  0.00000000E+00  0.00000000E+00
  0.00000000E+00  0.00000000E+00  0.00000000E+00
  0.00000000E+00  0.00000000E+00  0.00000000E+00
  0.00000000E+00  0.00000000E+00  0.00000000E+00
  0.00000000E+00  0.00000000E+00  0.00000000E+00
  0.00000000E+00  0.00000000E+00  0.00000000E+00
  0.00000000E+00  0.00000000E+00  0.00000000E+00
  0.00000000E+00  0.00000000E+00  0.00000000E+00
  0.00000000E+00  0.00000000E+00  0.00000000E+00
  0.00000000E+00  0.00000000E+00  0.00000000E+00
  0.00000000E+00  0.00000000E+00  0.00000000E+00
  0.00000000E+00  0.00000000E+00  0.00000000E+00
  0.00000000E+00  0.00000000E+00  0.00000000E+00
  0.00000000E+00  0.00000000E+00  0.00000000E+00
  0.00000000E+00  0.00000000E+00  0.00000000E+00
  0.00000000E+00  0.00000000E+00  0.00000000E+00
  0.00000000E+00  0.00000000E+00  0.00000000E+00
  0.00000000E+00  0.00000000E+00  0.00000000E+00
  0.00000000E+00  0.00000000E+00  0.00000000E+00
  0.00000000E+00  0.00000000E+00  0.00000000E+00
  0.00000000E+00  0.00000000E+00  0.00000000E+00
  0.00000000E+00  0.00000000E+00  0.00000000E+00
  0.00000000E+00  0.00000000E+00  0.00000000E+00
  0.00000000E+00  0.00000000E+00  0.00000000E+00
  0.00000000E+00  0.00000000E+00  0.00000000E+00
  0.00000000E+00  0.00000000E+00  0.00000000E+00
  0.00000000E+00  0.00000000E+00  0.00000000E+00
  0.00000000E+00  0.00000000E+00  0.00000000E+00
  0.00000000E+00  0.00000000E+00  0.00000000E+00
  0.00000000E+00  0.00000000E+00  0.00000000E+00
  0.00000000E+00  0.00000000E+00  0.00000000E+00
  0.00000000E+00  0.00000000E+00  0.00000000E+00
  0.00000000E+00  0.00000000E+00  0.00000000E+00
  0.00000000E+00  0.00000000E+00  0.00000000E+00
  0.00000000E+00  0.00000000E+00  0.00000000E+00
  0.00000000E+00  0.00000000E+00  0.00000000E+00
  0.00000000E+00  0.00000000E+00  0.00000000E+00
  0.00000000E+00  0.00000000E+00  0.00000000E+00
  0.00000000E+00  0.00000000E+00  0.00000000E+00
  0.00000000E+00  0.00000000E+00  0.00000000E+00
  0.00000000E+00  0.00000000E+00  0.00000000E+00
  0.00000000E+00  0.00000000E+00  0.00000000E+00
  0.00000000E+00  0.00000000E+00  0.00000000E+00
  0.00000000E+00  0.00000000E+00  0.00000000E+00
  0.00000000E+00  0.00000000E+00  0.00000000E+00
