Mg32 Se31                               
   1.00000000000000     
    11.9836209999999994    0.0000000000000000    0.0000000000000000
     0.0000000000000000   11.9836209999999994    0.0000000000000000
     0.0000000000000000    0.0000000000000000   11.9836209999999994
   Mg   Se
    32    31
Direct
  0.0113108196299964  0.0110853199648262  0.0113327449972175
 -0.0000689153238789 -0.0000162640351656  0.4996331487788638
  0.0002926797512280  0.4994176679008415  0.0003964184403902
  0.0004872429580938  0.4990062627057602  0.4988547183203115
  0.4992492587860915  0.0001019419665521  0.0002561789818662
  0.4980185235047245  0.0007211397675591  0.4982468515899508
  0.4984863130743533  0.4989333116475959  0.0006498083761525
  0.4999763774736413  0.5003495968052624  0.5000579429373820
  0.2394865768379521  0.2391560932807260  0.0108738345850797
  0.2503151812102684  0.2500348092982251  0.4996406186557583
  0.2498052608038563  0.7512680382048751  0.0005877349357578
  0.2494074057262528  0.7521017701808034  0.4982154952944987
  0.7505156716448304  0.2499096053029133  0.0000192905172851
  0.7513776486013943  0.2494833703955454  0.4989934911324083
  0.7515940627598376  0.7517704492732540  0.0006087296893456
  0.7499340738622975  0.7499149400571160  0.5000218048712189
  0.2374203891090994  0.0126990021134664  0.2379358567843050
  0.2498966199476780  0.0001282148585475  0.7507211343704659
  0.2498254485542707  0.4994698352976661  0.2498655349260868
  0.2493635352237016  0.4991494025163464  0.7520260194010772
  0.7504329672403813 -0.0000174987783470  0.2500335567084294
  0.7516336222380353  0.0003955342985766  0.7521784392536632
  0.7514297097910944  0.4993250942202220  0.2492914917917979
  0.7499919018602361  0.5001170639820781  0.7499962623780480
  0.0101888816229271  0.2396967419189079  0.2400999927965421
  0.0000677961944434  0.2499886696569761  0.7507919064454340
  0.0004348243691810  0.7512239814603047  0.2499568992979488
  0.0007310640460153  0.7516558459513036  0.7519483839393791
  0.4993287071026935  0.2500183225442478  0.2503423976088732
  0.4983575986315121  0.2495625501414185  0.7518467476096344
  0.4977748998500472  0.7520805727010578  0.2494900568225057
  0.4999976700113131  0.7500259414375443  0.7501121754502569
  0.1250129363553002  0.1250785151111390  0.6251682452476335
  0.1250210739504634  0.6253585525180153  0.1251309434091732
  0.1251349054074515  0.6255785642067382  0.6250993117760322
  0.6248669433828135  0.1250879344843486  0.1251359831821813
  0.6248085210973718  0.1247466780811801  0.6253943148963068
  0.6246865583966779  0.6257357657672914  0.1250524770013840
  0.6250068197532265  0.6251323930638493  0.6251775013919493
  0.3711470597765901  0.3711408550260847  0.1244932861114165
  0.3746900738806388  0.3752230541124662  0.6254960594344152
  0.3704580323608871  0.8797977905253307  0.1259515228505032
  0.3746614905294743  0.8753802915299579  0.6250848550540419
  0.8788582119858850  0.3711477218682567  0.1257368736629345
  0.8754161650310625  0.3748953396066193  0.6252026509369261
  0.8791578075066875  0.8792425995172178  0.1244067216753615
  0.8751965735237162  0.8750904102162180  0.6254270925375299
  0.3706326053158743  0.1245351753265421  0.3707653131888669
  0.3709514172220365  0.1255681957802083  0.8791189352956597
  0.3744655580092779  0.6252460515180892  0.3747180567117827
  0.3745142213223960  0.6255756713793341  0.8758006073347516
  0.8785962757121774  0.1254049304910323  0.3714258043894452
  0.8793436248361689  0.1243880438743544  0.8794090763802032
  0.8756448056663663  0.6254621980024433  0.3746070223761403
  0.8753410234528211  0.6250291141793195  0.8755218739512877
  0.1243782207900740  0.3712844857199939  0.3714231131892219
  0.1257071294997926  0.3710033027182836  0.8792609554716332
  0.1258075062636497  0.8798060441112696  0.3706936378802827
  0.1244220155232176  0.8792728245501519  0.8792870254094058
  0.6252558895402647  0.3750865515514170  0.3747988595832255
  0.6249031159564417  0.3750309798275321  0.8754357414586558
  0.6246893138703732  0.8752516790690302  0.3748498916710416
  0.6249092869872490  0.8752719592292707  0.8755565788526775
 
  0.00000000E+00  0.00000000E+00  0.00000000E+00
  0.00000000E+00  0.00000000E+00  0.00000000E+00
  0.00000000E+00  0.00000000E+00  0.00000000E+00
  0.00000000E+00  0.00000000E+00  0.00000000E+00
  0.00000000E+00  0.00000000E+00  0.00000000E+00
  0.00000000E+00  0.00000000E+00  0.00000000E+00
  0.00000000E+00  0.00000000E+00  0.00000000E+00
  0.00000000E+00  0.00000000E+00  0.00000000E+00
  0.00000000E+00  0.00000000E+00  0.00000000E+00
  0.00000000E+00  0.00000000E+00  0.00000000E+00
  0.00000000E+00  0.00000000E+00  0.00000000E+00
  0.00000000E+00  0.00000000E+00  0.00000000E+00
  0.00000000E+00  0.00000000E+00  0.00000000E+00
  0.00000000E+00  0.00000000E+00  0.00000000E+00
  0.00000000E+00  0.00000000E+00  0.00000000E+00
  0.00000000E+00  0.00000000E+00  0.00000000E+00
  0.00000000E+00  0.00000000E+00  0.00000000E+00
  0.00000000E+00  0.00000000E+00  0.00000000E+00
  0.00000000E+00  0.00000000E+00  0.00000000E+00
  0.00000000E+00  0.00000000E+00  0.00000000E+00
  0.00000000E+00  0.00000000E+00  0.00000000E+00
  0.00000000E+00  0.00000000E+00  0.00000000E+00
  0.00000000E+00  0.00000000E+00  0.00000000E+00
  0.00000000E+00  0.00000000E+00  0.00000000E+00
  0.00000000E+00  0.00000000E+00  0.00000000E+00
  0.00000000E+00  0.00000000E+00  0.00000000E+00
  0.00000000E+00  0.00000000E+00  0.00000000E+00
  0.00000000E+00  0.00000000E+00  0.00000000E+00
  0.00000000E+00  0.00000000E+00  0.00000000E+00
  0.00000000E+00  0.00000000E+00  0.00000000E+00
  0.00000000E+00  0.00000000E+00  0.00000000E+00
  0.00000000E+00  0.00000000E+00  0.00000000E+00
  0.00000000E+00  0.00000000E+00  0.00000000E+00
  0.00000000E+00  0.00000000E+00  0.00000000E+00
  0.00000000E+00  0.00000000E+00  0.00000000E+00
  0.00000000E+00  0.00000000E+00  0.00000000E+00
  0.00000000E+00  0.00000000E+00  0.00000000E+00
  0.00000000E+00  0.00000000E+00  0.00000000E+00
  0.00000000E+00  0.00000000E+00  0.00000000E+00
  0.00000000E+00  0.00000000E+00  0.00000000E+00
  0.00000000E+00  0.00000000E+00  0.00000000E+00
  0.00000000E+00  0.00000000E+00  0.00000000E+00
  0.00000000E+00  0.00000000E+00  0.00000000E+00
  0.00000000E+00  0.00000000E+00  0.00000000E+00
  0.00000000E+00  0.00000000E+00  0.00000000E+00
  0.00000000E+00  0.00000000E+00  0.00000000E+00
  0.00000000E+00  0.00000000E+00  0.00000000E+00
  0.00000000E+00  0.00000000E+00  0.00000000E+00
  0.00000000E+00  0.00000000E+00  0.00000000E+00
  0.00000000E+00  0.00000000E+00  0.00000000E+00
  0.00000000E+00  0.00000000E+00  0.00000000E+00
  0.00000000E+00  0.00000000E+00  0.00000000E+00
  0.00000000E+00  0.00000000E+00  0.00000000E+00
  0.00000000E+00  0.00000000E+00  0.00000000E+00
  0.00000000E+00  0.00000000E+00  0.00000000E+00
  0.00000000E+00  0.00000000E+00  0.00000000E+00
  0.00000000E+00  0.00000000E+00  0.00000000E+00
  0.00000000E+00  0.00000000E+00  0.00000000E+00
  0.00000000E+00  0.00000000E+00  0.00000000E+00
  0.00000000E+00  0.00000000E+00  0.00000000E+00
  0.00000000E+00  0.00000000E+00  0.00000000E+00
  0.00000000E+00  0.00000000E+00  0.00000000E+00
  0.00000000E+00  0.00000000E+00  0.00000000E+00
