Mg32 Se31
1.0
11.9836210000 0.0000000000 0.0000000000
0.0000000000 11.9836210000 0.0000000000
0.0000000000 0.0000000000 11.9836210000
Mg Se
32 31
direct
0.9977720000 0.0013940000 0.9989420000 Mg
0.0000000000 0.0000000000 0.5000000000 Mg
0.0000000000 0.5000000000 0.0000000000 Mg
0.0000000000 0.5000000000 0.5000000000 Mg
0.5000000000 0.0000000000 0.0000000000 Mg
0.5000000000 0.0000000000 0.5000000000 Mg
0.5000000000 0.5000000000 0.0000000000 Mg
0.5000000000 0.5000000000 0.5000000000 Mg
0.2532920000 0.2532190000 0.9997370000 Mg
0.2500000000 0.2500000000 0.5000000000 Mg
0.2500000000 0.7500000000 0.0000000000 Mg
0.2500000000 0.7500000000 0.5000000000 Mg
0.7500000000 0.2500000000 0.0000000000 Mg
0.7500000000 0.2500000000 0.5000000000 Mg
0.7500000000 0.7500000000 0.0000000000 Mg
0.7500000000 0.7500000000 0.5000000000 Mg
0.2506420000 0.0098570000 0.2560870000 Mg
0.2500000000 0.0000000000 0.7500000000 Mg
0.2500000000 0.5000000000 0.2500000000 Mg
0.2500000000 0.5000000000 0.7500000000 Mg
0.7500000000 0.0000000000 0.2500000000 Mg
0.7500000000 0.0000000000 0.7500000000 Mg
0.7500000000 0.5000000000 0.2500000000 Mg
0.7500000000 0.5000000000 0.7500000000 Mg
0.9940430000 0.2511410000 0.2558900000 Mg
0.0000000000 0.2500000000 0.7500000000 Mg
0.0000000000 0.7500000000 0.2500000000 Mg
0.0000000000 0.7500000000 0.7500000000 Mg
0.5000000000 0.2500000000 0.2500000000 Mg
0.5000000000 0.2500000000 0.7500000000 Mg
0.5000000000 0.7500000000 0.2500000000 Mg
0.5000000000 0.7500000000 0.7500000000 Mg
0.1250000000 0.1250000000 0.6250000000 Se
0.1250000000 0.6250000000 0.1250000000 Se
0.1250000000 0.6250000000 0.6250000000 Se
0.6250000000 0.1250000000 0.1250000000 Se
0.6250000000 0.1250000000 0.6250000000 Se
0.6250000000 0.6250000000 0.1250000000 Se
0.6250000000 0.6250000000 0.6250000000 Se
0.3750000000 0.3750000000 0.1250000000 Se
0.3750000000 0.3750000000 0.6250000000 Se
0.3750000000 0.8750000000 0.1250000000 Se
0.3750000000 0.8750000000 0.6250000000 Se
0.8750000000 0.3750000000 0.1250000000 Se
0.8750000000 0.3750000000 0.6250000000 Se
0.8750000000 0.8750000000 0.1250000000 Se
0.8750000000 0.8750000000 0.6250000000 Se
0.3750000000 0.1250000000 0.3750000000 Se
0.3750000000 0.1250000000 0.8750000000 Se
0.3750000000 0.6250000000 0.3750000000 Se
0.3750000000 0.6250000000 0.8750000000 Se
0.8750000000 0.1250000000 0.3750000000 Se
0.8750000000 0.1250000000 0.8750000000 Se
0.8750000000 0.6250000000 0.3750000000 Se
0.8750000000 0.6250000000 0.8750000000 Se
0.1250000000 0.3750000000 0.3750000000 Se
0.1250000000 0.3750000000 0.8750000000 Se
0.1250000000 0.8750000000 0.3750000000 Se
0.1250000000 0.8750000000 0.8750000000 Se
0.6250000000 0.3750000000 0.3750000000 Se
0.6250000000 0.3750000000 0.8750000000 Se
0.6250000000 0.8750000000 0.3750000000 Se
0.6250000000 0.8750000000 0.8750000000 Se
